(set-logic QF_LIA)
(set-info :ran/ran2.smt2)
(set-info :smt-lib-version 2.0)
(declare-fun x1 () Int)
(declare-fun x2 () Int)
(declare-fun x3 () Int)
(declare-fun x4 () Int)
(declare-fun x5 () Int)
(assert (<= (+ (* 6 x1) (* 9 x2) (* 2 x3) (* (- 9) x4) (* (- 7) x5) ) 132))
(assert (<= (+ (* 5 x1) (* 6 x2) (* 10 x3) (* (- 10) x4) (* 5 x5) ) (- 23)))
(assert (<= (+ (* 2 x1) (* (- 9) x2) (* (- 4) x3) (* (- 6) x4) (* 10 x5) ) 166))
(assert (<= (+ (* (- 3) x1) (* (- 6) x2) (* 0 x3) (* 0 x4) (* (- 5) x5) ) (- 60)))
(assert (<= (+ (* (- 1) x1) (* 10 x2) (* (- 2) x3) (* 8 x4) (* 4 x5) ) 92))
(assert (<= (+ (* (- 5) x1) (* 0 x2) (* (- 8) x3) (* 8 x4) (* 1 x5) ) 9))
(assert (<= (+ (* (- 4) x1) (* (- 7) x2) (* 10 x3) (* (- 5) x4) (* (- 7) x5) ) (- 192)))
(assert (<= (+ (* (- 6) x1) (* 3 x2) (* 4 x3) (* 0 x4) (* 7 x5) ) (- 20)))
(assert (<= (+ (* 0 x1) (* (- 7) x2) (* 3 x3) (* 8 x4) (* 3 x5) ) (- 26)))
(assert (<= (+ (* (- 5) x1) (* (- 10) x2) (* 8 x3) (* 1 x4) (* 8 x5) ) 160))
(assert (<= (+ (* 1 x1) (* 0 x2) (* 0 x3) (* 0 x4) (* 0 x5) ) 251))
(assert (<= (+ (* (- 1) x1) (* 0 x2) (* 0 x3) (* 0 x4) (* 0 x5) ) 251))
(assert (<= (+ (* 0 x1) (* 1 x2) (* 0 x3) (* 0 x4) (* 0 x5) ) 251))
(assert (<= (+ (* 0 x1) (* (- 1) x2) (* 0 x3) (* 0 x4) (* 0 x5) ) 251))
(assert (<= (+ (* 0 x1) (* 0 x2) (* 1 x3) (* 0 x4) (* 0 x5) ) 251))
(assert (<= (+ (* 0 x1) (* 0 x2) (* (- 1) x3) (* 0 x4) (* 0 x5) ) 251))
(assert (<= (+ (* 0 x1) (* 0 x2) (* 0 x3) (* 1 x4) (* 0 x5) ) 251))
(assert (<= (+ (* 0 x1) (* 0 x2) (* 0 x3) (* (- 1) x4) (* 0 x5) ) 251))
(assert (<= (+ (* 0 x1) (* 0 x2) (* 0 x3) (* 0 x4) (* 1 x5) ) 251))
(assert (<= (+ (* 0 x1) (* 0 x2) (* 0 x3) (* 0 x4) (* (- 1) x5) ) 251))
